52
2 107 90 
2 64 25 
2 37 11 
2 63 113 
2 1 5 
3 103 67 34 
2 36 47 
2 48 40 
2 71 109 
3 115 2 41 
3 24 116 84 
3 83 96 108 
2 30 38 
3 112 61 53 
3 4 46 13 
2 32 17 
2 22 92 
2 3 75 
2 19 91 
2 97 59 
3 43 106 100 
2 105 8 
2 87 20 
2 49 102 
4 31 81 14 26 
2 23 118 
2 56 44 
1 35 
2 55 45 
3 62 33 89 
3 39 60 16 
2 42 93 
4 111 78 101 6 
2 88 85 
2 52 99 
2 79 57 
3 69 76 58 
3 95 21 27 
3 7 94 82 
2 74 9 
2 66 65 
1 86 
3 18 72 70 
2 110 117 
2 119 28 
2 68 73 
2 98 50 
2 114 29 
2 15 54 
2 51 120 
2 77 12 
3 10 104 80 
